c Sudoku solution
p cnf 729 0
127 0
144 0
168 0
172 0
293 0
314 0
333 0
153 0
385 0
437 0
456 0
483 0
516 0
575 0
591 0
625 0
639 0
687 0
734 0
758 0
761 0
877 0
397 0
886 0
913 0
717 0
773 0
523 0
424 0
929 0
955 0
795 0
998 0
249 0
265 0
257 0
119 0
135 0
181 0
196 0
379 0
328 0
212 0
532 0
815 0
838 0
821 0
226 0
231 0
722 0
936 0
789 0
746 0
445 0
411 0
618 0
478 0
548 0
366 0
947 0
567 0
971 0
676 0
274 0
288 0
982 0
894 0
964 0
584 0
692 0
499 0
462 0
663 0
641 0
654 0
559 0
342 0
351 0
843 0
852 0
869 0
